primitive Si
   1.0 
     0.0000000000000000    2.7343755164098931    2.7343755164098931
     2.7343755164098931    0.0000000000000000    2.7343755164098931
     2.7343755164098931    2.7343755164098931    0.0000000000000000
   Si
     2   
Direct
  0.7500000000000000  0.7500000000000000  0.7500000000000000
  0.5000000000000000  0.5000000000000000  0.5000000000000000