 Pb I
   1.0
     4.6605965818725474    0.0000000000000029    0.0000000000000000
    -2.3302982909362742    4.0361952855554284    0.0000000000000000
     0.0000000000000000    0.0000000000000000   15.0751819771397635
 Pb I
   2   4
Direct
   0.6666669999999968  0.3333330000000032  0.4999966830438891
   0.3333330000000032  0.6666669999999968  0.9999966758470986
   0.6666669999999968  0.3333330000000032  0.8764262859531139
   0.0000000000000000  0.0000000000000000  0.1235770339262582
   0.0000000000000000  0.0000000000000000  0.6235770343792986
   0.3333330000000032  0.6666669999999968  0.3764262868503627