generated by phonopy
   1.0
     0.0000000000000000    2.8916046182323498    2.8916046182323498
     2.8916046182323498    0.0000000000000000    2.8916046182323498
     2.8916046182323498    2.8916046182323498    0.0000000000000000
Ge
   2
Direct
  0.0000000000000000  0.0000000000000000  0.0000000000000000
  0.2500000000000000  0.2500000000000000  0.2500000000000000
